p cnf 31 80
a 12 23 0
e 1 2 3 4 5 6 7 8 9 10 11 13 14 15 16 17 18 19 20 21 22 24 25 26 27 28 29 30 31 0
3 -1 0
3 -2 0
1 2 -3 0
4 -5 -6 0
-4 5 -6 0
4 5 6 0
-4 -5 6 0
-9 7 0
-9 -8 0
-7 8 9 0
-10 6 0
-10 9 0
-6 -9 10 0
11 -7 0
11 -8 0
7 8 -11 0
13 2 0
13 -12 0
-2 12 -13 0
14 11 0
14 -13 0
-11 13 -14 0
16 -15 0
16 2 0
15 -2 -16 0
14 -16 -17 0
-14 16 -17 0
14 16 17 0
-14 -16 17 0
8 -18 0
-8 -18 0
19 17 0
19 -18 0
-17 18 -19 0
20 12 0
20 -2 0
-12 2 -20 0
21 11 0
21 11 0
-11 -21 0
-2 -7 -22 0
2 7 -22 0
-2 7 22 0
2 -7 22 0
23 22 0
23 16 0
-22 -16 -23 0
24 1 0
24 14 0
-1 -14 -24 0
25 -16 0
25 24 0
16 -24 -25 0
23 -25 -26 0
-23 25 -26 0
23 25 26 0
-23 -25 26 0
-27 -21 0
-27 26 0
21 -26 27 0
28 -20 0
28 27 0
20 -27 -28 0
29 -19 0
29 28 0
19 -28 -29 0
30 -10 0
30 29 0
10 -29 -30 0
31 3 0
31 30 0
-3 -30 -31 0
-18 27 9 19 0
19 -12 -31 -25 -17 0
-2 -25 -31 -11 0
-18 25 -30 20 0
-11 -27 23 19 3 -31 0
-10 -13 -9 -17 -22 -11 0
-26 -2 24 -12 -3 0
31 0
